pair_style eam/alloy
pair_coeff * * Cu01.eam.alloy Cu Cu
neighbor 2.0 bin 
neigh_modify delay 10 check yes 
